\ This file was automatically generated by Zimpl
\ var x1 >= 0;
\ var x2 >= -infinity;
\ var x3 <=0;
\ maximize Z :      4*x1 + x2 + x3;
\ subto r1:      x1 + x2 + x3 >= 2;
\ subto r2:     3*x1 + 4*x2 + 8*x3 <= 24;
\ subto r3:     5*x1 + 6*x2 + 9*x3 == 0;
\Problem name: .\pp.zpl
Maximize
 Z:  +4 x1 + x2 + x3
Subject to
 r1_1:
  + x3 + x2 + x1 >= 2
 r2_1:
  +8 x3 +4 x2 +3 x1 <= 24
 r3_1:
  +9 x3 +6 x2 +5 x1 = 0
Bounds
 0 <= x1 <= +inf
 -inf <= x2 <= +inf
 x3 = 0
End
